encoding rcpsp/j90.sm/j906_10.sm nv: 1741428 nc: 3592396 enctime: 28.24
encoding rcpsp/j90.sm/j906_10.sm nv: 320372 nc: 657548 enctime: 3.84
c File: j906_10.smnaive.wcnf
c optimal
c final solution cost: 94
c CPU time: 6.031621
s OPTIMUM FOUND

c File: j906_10.sm.wcnf
c optimal
c final solution cost: 94
c CPU time: 0.850176
s OPTIMUM FOUND


encoding rcpsp/j90.sm/j906_1.sm nv: 1408808 nc: 2868004 enctime: 21.48
encoding rcpsp/j90.sm/j906_1.sm nv: 273764 nc: 554743 enctime: 3.21
c File: j906_1.smnaive.wcnf
c optimal
c final solution cost: 82
c CPU time: 4.342810
s OPTIMUM FOUND

c File: j906_1.sm.wcnf
c optimal
c final solution cost: 82
c CPU time: 0.646549
s OPTIMUM FOUND


encoding rcpsp/j90.sm/j906_2.sm nv: 1550172 nc: 3170922 enctime: 24.64
encoding rcpsp/j90.sm/j906_2.sm nv: 301248 nc: 613374 enctime: 2.96
c File: j906_2.smnaive.wcnf
c optimal
c final solution cost: 86
c CPU time: 5.029965
s OPTIMUM FOUND

c File: j906_2.sm.wcnf
c optimal
c final solution cost: 86
c CPU time: 0.793091
s OPTIMUM FOUND


encoding rcpsp/j90.sm/j906_3.sm nv: 1438976 nc: 2962102 enctime: 23.32
encoding rcpsp/j90.sm/j906_3.sm nv: 247808 nc: 507010 enctime: 3.04
c File: j906_3.smnaive.wcnf
c optimal
c final solution cost: 77
c CPU time: 11.280217
s OPTIMUM FOUND

c File: j906_3.sm.wcnf
c optimal
c final solution cost: 77
c CPU time: 4.407766
s OPTIMUM FOUND


encoding rcpsp/j90.sm/j906_4.sm nv: 1674092 nc: 3404704 enctime: 25.44
encoding rcpsp/j90.sm/j906_4.sm nv: 302462 nc: 612304 enctime: 3.63
c File: j906_4.smnaive.wcnf
c optimal
c final solution cost: 80
c CPU time: 4.953921
s OPTIMUM FOUND

c File: j906_4.sm.wcnf
c optimal
c final solution cost: 80
c CPU time: 0.780114
s OPTIMUM FOUND


encoding rcpsp/j90.sm/j906_5.sm nv: 1545403 nc: 3163984 enctime: 24.00
encoding rcpsp/j90.sm/j906_5.sm nv: 244663 nc: 497824 enctime: 3.00
c File: j906_5.smnaive.wcnf
c optimal
c final solution cost: 71
c CPU time: 5.089439
s OPTIMUM FOUND

c File: j906_5.sm.wcnf
c optimal
c final solution cost: 71
c CPU time: 0.590722
s OPTIMUM FOUND


encoding rcpsp/j90.sm/j906_6.sm nv: 1556856 nc: 3193634 enctime: 24.83
encoding rcpsp/j90.sm/j906_6.sm nv: 308900 nc: 630658 enctime: 3.74
c File: j906_6.smnaive.wcnf
c optimal
c final solution cost: 98
c CPU time: 5.329068
s OPTIMUM FOUND

c File: j906_6.sm.wcnf
c optimal
c final solution cost: 98
c CPU time: 0.786776
s OPTIMUM FOUND


encoding rcpsp/j90.sm/j906_7.sm nv: 1787916 nc: 3624202 enctime: 26.24
encoding rcpsp/j90.sm/j906_7.sm nv: 277108 nc: 558806 enctime: 3.30
c File: j906_7.smnaive.wcnf
c optimal
c final solution cost: 71
c CPU time: 5.385921
s OPTIMUM FOUND

c File: j906_7.sm.wcnf
c optimal
c final solution cost: 71
c CPU time: 0.753340
s OPTIMUM FOUND


encoding rcpsp/j90.sm/j906_8.sm nv: 1690040 nc: 3456128 enctime: 26.16
encoding rcpsp/j90.sm/j906_8.sm nv: 247160 nc: 502112 enctime: 2.39
c File: j906_8.smnaive.wcnf
c optimal
c final solution cost: 68
c CPU time: 22.641150
s OPTIMUM FOUND

c File: j906_8.sm.wcnf
c optimal
c final solution cost: 68
c CPU time: 4.149830
s OPTIMUM FOUND


encoding rcpsp/j90.sm/j906_9.sm nv: 1699360 nc: 3465257 enctime: 25.90
encoding rcpsp/j90.sm/j906_9.sm nv: 237360 nc: 480907 enctime: 2.29
c File: j906_9.smnaive.wcnf
c optimal
c final solution cost: 68
c CPU time: 4.751833
s OPTIMUM FOUND

c File: j906_9.sm.wcnf
c optimal
c final solution cost: 68
c CPU time: 0.445776
s OPTIMUM FOUND


encoding rcpsp/j90.sm/j907_10.sm nv: 2051472 nc: 4190193 enctime: 31.25
encoding rcpsp/j90.sm/j907_10.sm nv: 375408 nc: 763367 enctime: 4.43
c File: j907_10.smnaive.wcnf
c optimal
c final solution cost: 98
c CPU time: 6.294814
s OPTIMUM FOUND

c File: j907_10.sm.wcnf
c optimal
c final solution cost: 98
c CPU time: 0.694639
s OPTIMUM FOUND


encoding rcpsp/j90.sm/j907_1.sm nv: 2185475 nc: 4402758 enctime: 31.80
encoding rcpsp/j90.sm/j907_1.sm nv: 409489 nc: 822222 enctime: 4.81
c File: j907_1.smnaive.wcnf
c optimal
c final solution cost: 88
c CPU time: 5.413410
s OPTIMUM FOUND

c File: j907_1.sm.wcnf
c optimal
c final solution cost: 88
c CPU time: 0.684627
s OPTIMUM FOUND


encoding rcpsp/j90.sm/j907_2.sm nv: 2013235 nc: 4064682 enctime: 29.41
encoding rcpsp/j90.sm/j907_2.sm nv: 323778 nc: 650766 enctime: 3.97
c File: j907_2.smnaive.wcnf
c optimal
c final solution cost: 77
c CPU time: 6.282511
s OPTIMUM FOUND

c File: j907_2.sm.wcnf
c optimal
c final solution cost: 77
c CPU time: 0.639730
s OPTIMUM FOUND


encoding rcpsp/j90.sm/j907_3.sm nv: 2005481 nc: 4068768 enctime: 29.76
encoding rcpsp/j90.sm/j907_3.sm nv: 329558 nc: 665631 enctime: 4.02
c File: j907_3.smnaive.wcnf
c optimal
c final solution cost: 80
c CPU time: 5.497034
s OPTIMUM FOUND

c File: j907_3.sm.wcnf
c optimal
c final solution cost: 80
c CPU time: 0.709358
s OPTIMUM FOUND


encoding rcpsp/j90.sm/j907_4.sm nv: 1639891 nc: 3332637 enctime: 24.92
encoding rcpsp/j90.sm/j907_4.sm nv: 301629 nc: 610179 enctime: 3.65
c File: j907_4.smnaive.wcnf
c optimal
c final solution cost: 86
c CPU time: 4.103974
s OPTIMUM FOUND

c File: j907_4.sm.wcnf
c optimal
c final solution cost: 86
c CPU time: 0.533851
s OPTIMUM FOUND


encoding rcpsp/j90.sm/j907_5.sm nv: 1727928 nc: 3498274 enctime: 25.73
encoding rcpsp/j90.sm/j907_5.sm nv: 300348 nc: 605384 enctime: 3.59
c File: j907_5.smnaive.wcnf
c optimal
c final solution cost: 79
c CPU time: 4.720106
s OPTIMUM FOUND

c File: j907_5.sm.wcnf
c optimal
c final solution cost: 79
c CPU time: 0.601550
s OPTIMUM FOUND


encoding rcpsp/j90.sm/j907_6.sm nv: 1665962 nc: 3385893 enctime: 24.96
encoding rcpsp/j90.sm/j907_6.sm nv: 333888 nc: 675785 enctime: 3.90
c File: j907_6.smnaive.wcnf
c optimal
c final solution cost: 90
c CPU time: 4.777259
s OPTIMUM FOUND

c File: j907_6.sm.wcnf
c optimal
c final solution cost: 90
c CPU time: 0.784812
s OPTIMUM FOUND


encoding rcpsp/j90.sm/j907_7.sm nv: 2047536 nc: 4130819 enctime: 29.72
encoding rcpsp/j90.sm/j907_7.sm nv: 394758 nc: 793640 enctime: 4.56
c File: j907_7.smnaive.wcnf
c optimal
c final solution cost: 90
c CPU time: 5.719808
s OPTIMUM FOUND

c File: j907_7.sm.wcnf
c optimal
c final solution cost: 90
c CPU time: 0.785811
s OPTIMUM FOUND


encoding rcpsp/j90.sm/j907_8.sm nv: 2192055 nc: 4405233 enctime: 31.27
encoding rcpsp/j90.sm/j907_8.sm nv: 294810 nc: 589596 enctime: 3.62
c File: j907_8.smnaive.wcnf
c optimal
c final solution cost: 60
c CPU time: 5.981971
s OPTIMUM FOUND

c File: j907_8.sm.wcnf
c optimal
c final solution cost: 60
c CPU time: 0.755855
s OPTIMUM FOUND


encoding rcpsp/j90.sm/j907_9.sm nv: 1627749 nc: 3331562 enctime: 25.20
encoding rcpsp/j90.sm/j907_9.sm nv: 272878 nc: 555208 enctime: 3.34
c File: j907_9.smnaive.wcnf
c optimal
c final solution cost: 83
c CPU time: 5.658973
s OPTIMUM FOUND

c File: j907_9.sm.wcnf
c optimal
c final solution cost: 83
c CPU time: 0.652751
s OPTIMUM FOUND


encoding rcpsp/j90.sm/j908_10.sm nv: 2053473 nc: 4133108 enctime: 30.79
encoding rcpsp/j90.sm/j908_10.sm nv: 381543 nc: 765068 enctime: 4.53
c File: j908_10.smnaive.wcnf
c optimal
c final solution cost: 88
c CPU time: 4.939984
s OPTIMUM FOUND

c File: j908_10.sm.wcnf
c optimal
c final solution cost: 88
c CPU time: 0.645102
s OPTIMUM FOUND


encoding rcpsp/j90.sm/j908_1.sm nv: 2484713 nc: 5030908 enctime: 37.55
encoding rcpsp/j90.sm/j908_1.sm nv: 455609 nc: 919132 enctime: 5.50
c File: j908_1.smnaive.wcnf
c optimal
c final solution cost: 96
c CPU time: 6.157504
s OPTIMUM FOUND

c File: j908_1.sm.wcnf
c optimal
c final solution cost: 96
c CPU time: 0.765422
s OPTIMUM FOUND


encoding rcpsp/j90.sm/j908_2.sm nv: 1784102 nc: 3579666 enctime: 25.77
encoding rcpsp/j90.sm/j908_2.sm nv: 336382 nc: 672666 enctime: 3.95
c File: j908_2.smnaive.wcnf
c optimal
c final solution cost: 78
c CPU time: 4.123514
s OPTIMUM FOUND

c File: j908_2.sm.wcnf
c optimal
c final solution cost: 78
c CPU time: 0.579806
s OPTIMUM FOUND


encoding rcpsp/j90.sm/j908_3.sm nv: 2453993 nc: 4923946 enctime: 35.92
encoding rcpsp/j90.sm/j908_3.sm nv: 357769 nc: 714858 enctime: 4.46
c File: j908_3.smnaive.wcnf
c optimal
c final solution cost: 70
c CPU time: 5.860817
s OPTIMUM FOUND

c File: j908_3.sm.wcnf
c optimal
c final solution cost: 70
c CPU time: 0.616324
s OPTIMUM FOUND


j90
1000
0
rcpsp/heur_output_log_0/heurj90.txt
encoding rcpsp/j90.sm/j908_4.sm nv: 2587200 nc: 5240796 enctime: 38.75
encoding rcpsp/j90.sm/j908_4.sm nv: 374400 nc: 754805 enctime: 4.62
c File: j908_4.smnaive.wcnf
c optimal
c final solution cost: 77
c CPU time: 6.454860
s OPTIMUM FOUND

c File: j908_4.sm.wcnf
c optimal
c final solution cost: 77
c CPU time: 0.632424
s OPTIMUM FOUND


j90
1000
0
rcpsp/heur_output_log_0/heurj90.txt
encoding rcpsp/j90.sm/j908_5.sm nv: 2696265 nc: 5401353 enctime: 39.48
encoding rcpsp/j90.sm/j908_5.sm nv: 348608 nc: 695264 enctime: 3.38
c File: j908_5.smnaive.wcnf
c optimal
c final solution cost: 63
c CPU time: 6.362767
s OPTIMUM FOUND

c File: j908_5.sm.wcnf
c optimal
c final solution cost: 63
c CPU time: 0.610690
s OPTIMUM FOUND


j90
1000
0
rcpsp/heur_output_log_0/heurj90.txt
encoding rcpsp/j90.sm/j908_6.sm nv: 2814870 nc: 5643636 enctime: 40.66
encoding rcpsp/j90.sm/j908_6.sm nv: 395754 nc: 790214 enctime: 4.91
c File: j908_6.smnaive.wcnf
c optimal
c final solution cost: 70
c CPU time: 6.602849
s OPTIMUM FOUND

c File: j908_6.sm.wcnf
c optimal
c final solution cost: 70
c CPU time: 0.677142
s OPTIMUM FOUND


j90
1000
0
rcpsp/heur_output_log_0/heurj90.txt
encoding rcpsp/j90.sm/j908_7.sm nv: 2418930 nc: 4877027 enctime: 35.91
encoding rcpsp/j90.sm/j908_7.sm nv: 369954 nc: 742787 enctime: 4.59
c File: j908_7.smnaive.wcnf
c optimal
c final solution cost: 77
c CPU time: 5.891934
s OPTIMUM FOUND

c File: j908_7.sm.wcnf
c optimal
c final solution cost: 77
c CPU time: 0.625716
s OPTIMUM FOUND


j90
1000
0
rcpsp/heur_output_log_0/heurj90.txt
encoding rcpsp/j90.sm/j908_8.sm nv: 2798148 nc: 5611571 enctime: 40.44
encoding rcpsp/j90.sm/j908_8.sm nv: 384606 nc: 768033 enctime: 4.85
c File: j908_8.smnaive.wcnf
c optimal
c final solution cost: 68
c CPU time: 6.723018
s OPTIMUM FOUND

c File: j908_8.sm.wcnf
c optimal
c final solution cost: 68
c CPU time: 0.660160
s OPTIMUM FOUND


j90
1000
0
rcpsp/heur_output_log_0/heurj90.txt
encoding rcpsp/j90.sm/j908_9.sm nv: 2540154 nc: 5139655 enctime: 38.70
encoding rcpsp/j90.sm/j908_9.sm nv: 458444 nc: 924170 enctime: 5.78
c File: j908_9.smnaive.wcnf
c optimal
c final solution cost: 97
c CPU time: 6.363829
s OPTIMUM FOUND

c File: j908_9.sm.wcnf
c optimal
c final solution cost: 97
c CPU time: 0.768161
s OPTIMUM FOUND


j90
1000
0
rcpsp/heur_output_log_0/heurj90.txt
encoding rcpsp/j90.sm/j909_10.sm nv: 1833304 nc: 3758816 enctime: 27.73
encoding rcpsp/j90.sm/j909_10.sm nv: 463804 nc: 948191 enctime: 6.06
c File: j909_10.smnaive.wcnf
c timeout
c final solution cost: 190
c CPU time: 63.738337
s UNKNOWN

c File: j909_10.sm.wcnf
c timeout
c final solution cost: 118
c CPU time: 60.743574
s UNKNOWN


j90
1000
0
rcpsp/heur_output_log_0/heurj90.txt
encoding rcpsp/j90.sm/j909_1.sm nv: 1756800 nc: 3588388 enctime: 25.95
encoding rcpsp/j90.sm/j909_1.sm nv: 450180 nc: 916957 enctime: 5.85
c File: j909_1.smnaive.wcnf
c timeout
c final solution cost: 116
c CPU time: 63.497434
s UNKNOWN

c File: j909_1.sm.wcnf
c timeout
c final solution cost: 114
c CPU time: 60.712377
s UNKNOWN


j90
1000
0
rcpsp/heur_output_log_0/heurj90.txt
encoding rcpsp/j90.sm/j909_2.sm nv: 1837668 nc: 3785098 enctime: 28.20
encoding rcpsp/j90.sm/j909_2.sm nv: 497994 nc: 1022856 enctime: 6.55
c File: j909_2.smnaive.wcnf
c timeout
c final solution cost: 139
c CPU time: 63.841221
s UNKNOWN

c File: j909_2.sm.wcnf
c timeout
c final solution cost: 138
c CPU time: 60.815790
s UNKNOWN


j90
1000
0
rcpsp/heur_output_log_0/heurj90.txt
encoding rcpsp/j90.sm/j909_3.sm nv: 1725977 nc: 3524700 enctime: 25.85
encoding rcpsp/j90.sm/j909_3.sm nv: 437880 nc: 891673 enctime: 4.98
c File: j909_3.smnaive.wcnf
c timeout
c final solution cost: 112
c CPU time: 63.415290
s UNKNOWN

c File: j909_3.sm.wcnf
c timeout
c final solution cost: 110
c CPU time: 60.702742
s UNKNOWN


j90
1000
0
rcpsp/heur_output_log_0/heurj90.txt
encoding rcpsp/j90.sm/j909_4.sm nv: 1746944 nc: 3596608 enctime: 26.42
encoding rcpsp/j90.sm/j909_4.sm nv: 481092 nc: 987736 enctime: 6.22
c File: j909_4.smnaive.wcnf
c timeout
c final solution cost: 133
c CPU time: 63.630198
s UNKNOWN

c File: j909_4.sm.wcnf
c timeout
c CPU time: 60.648429
s UNKNOWN


j90
1000
0
rcpsp/heur_output_log_0/heurj90.txt
encoding rcpsp/j90.sm/j909_5.sm nv: 1551396 nc: 3207845 enctime: 24.29
encoding rcpsp/j90.sm/j909_5.sm nv: 497904 nc: 1026950 enctime: 6.47
c File: j909_5.smnaive.wcnf
c timeout
c final solution cost: 314
c CPU time: 63.495115
s UNKNOWN

c File: j909_5.sm.wcnf
c timeout
c final solution cost: 147
c CPU time: 60.829816
s UNKNOWN


j90
1000
0
rcpsp/heur_output_log_0/heurj90.txt
encoding rcpsp/j90.sm/j909_6.sm nv: 1768348 nc: 3635564 enctime: 26.79
encoding rcpsp/j90.sm/j909_6.sm nv: 466454 nc: 956228 enctime: 6.15
c File: j909_6.smnaive.wcnf
c timeout
c final solution cost: 131
c CPU time: 63.716331
s UNKNOWN

c File: j909_6.sm.wcnf
c timeout
c CPU time: 60.619683
s UNKNOWN


j90
1000
0
rcpsp/heur_output_log_0/heurj90.txt
encoding rcpsp/j90.sm/j909_7.sm nv: 1748428 nc: 3591235 enctime: 26.91
encoding rcpsp/j90.sm/j909_7.sm nv: 437976 nc: 896816 enctime: 5.06
c File: j909_7.smnaive.wcnf
c timeout
c final solution cost: 120
c CPU time: 63.689210
s UNKNOWN

c File: j909_7.sm.wcnf
c timeout
c final solution cost: 117
c CPU time: 60.671835
s UNKNOWN


j90
1000
0
rcpsp/heur_output_log_0/heurj90.txt
encoding rcpsp/j90.sm/j909_8.sm nv: 1714330 nc: 3524920 enctime: 25.77
encoding rcpsp/j90.sm/j909_8.sm nv: 461025 nc: 945277 enctime: 6.08
c File: j909_8.smnaive.wcnf
c timeout
c final solution cost: 128
c CPU time: 63.599538
s UNKNOWN

c File: j909_8.sm.wcnf
c timeout
c final solution cost: 124
c CPU time: 60.753205
s UNKNOWN


j90
1000
0
rcpsp/heur_output_log_0/heurj90.txt
encoding rcpsp/j90.sm/j909_9.sm nv: 1625272 nc: 3331757 enctime: 24.47
encoding rcpsp/j90.sm/j909_9.sm nv: 446614 nc: 913016 enctime: 5.11
c File: j909_9.smnaive.wcnf
c timeout
c final solution cost: 130
c CPU time: 63.457891
s UNKNOWN

c File: j909_9.sm.wcnf
c timeout
c final solution cost: 128
c CPU time: 60.734763
s UNKNOWN


